NAME Model5
ROWS
 N  OBJ
 E  c0      
 E  c1      
 E  c2      
 E  c3      
 E  c4      
 E  c5      
 E  c6      
 E  c7      
 E  c8      
 L  c9      
 L  c10     
 L  c11     
 L  c12     
 L  c13     
 L  c14     
 L  c15     
 L  c16     
 L  c17     
 L  c18     
 L  c19     
 L  c20     
 L  c21     
 L  c22     
 L  c23     
 L  c24     
 L  c25     
 L  c26     
 G  c27     
 G  c28     
 G  c29     
 G  c30     
 G  c31     
 G  c32     
 G  c33     
 G  c34     
 G  c35     
 G  c36     
 G  c37     
 G  c38     
 G  c39     
 G  c40     
 G  c41     
 G  c42     
 G  c43     
 G  c44     
 G  c45     
 G  c46     
 G  c47     
 G  c48     
 G  c49     
 G  c50     
 G  c51     
 G  c52     
 G  c53     
 G  c54     
 G  c55     
 G  c56     
 G  c57     
 G  c58     
 G  c59     
 G  c60     
 G  c61     
 G  c62     
 G  c63     
 G  c64     
 G  c65     
 G  c66     
 G  c67     
 G  c68     
 G  c69     
 G  c70     
 G  c71     
 G  c72     
 G  c73     
 G  c74     
 G  c75     
 G  c76     
 G  c77     
 G  c78     
 G  c79     
 G  c80     
 G  c81     
 G  c82     
 G  c83     
 G  c84     
 G  c85     
 G  c86     
 G  c87     
 G  c88     
 G  c89     
 G  c90     
 G  c91     
 G  c92     
 G  c93     
 G  c94     
 G  c95     
 G  c96     
 G  c97     
 G  c98     
 G  c99     
 G  c100    
 G  c101    
 G  c102    
 G  c103    
 G  c104    
 G  c105    
 G  c106    
 G  c107    
 G  c108    
 G  c109    
 G  c110    
 G  c111    
 G  c112    
 G  c113    
 G  c114    
 G  c115    
 G  c116    
 G  c117    
COLUMNS
    MARKER    'MARKER'                 'INTORG'
    y[0,0,3]  c0        1
    y[0,0,3]  c9        -1000000
    y[0,0,3]  c27       -1000000
    y[0,0,3]  c28       -1000000
    y[0,0,3]  c31       -1000000
    y[0,0,3]  c32       -1000000
    y[0,0,3]  c35       -1000000
    y[0,0,3]  c36       -1000000
    y[0,0,3]  c37       -1000000
    y[0,0,3]  c38       -1000000
    y[0,0,3]  c117      -150
    y[0,0,4]  c0        1
    y[0,0,4]  c10       -1000000
    y[0,0,4]  c29       -1000000
    y[0,0,4]  c30       -1000000
    y[0,0,4]  c33       -1000000
    y[0,0,4]  c34       -1000000
    y[0,0,4]  c117      -160
    y[0,1,1]  c1        1
    y[0,1,1]  c11       -1000000
    y[0,1,1]  c39       -1000000
    y[0,1,1]  c40       -1000000
    y[0,1,1]  c41       -1000000
    y[0,1,1]  c42       -1000000
    y[0,1,1]  c47       -1000000
    y[0,1,1]  c48       -1000000
    y[0,1,1]  c49       -1000000
    y[0,1,1]  c50       -1000000
    y[0,1,1]  c111      -130
    y[0,1,3]  c1        1
    y[0,1,3]  c12       -1000000
    y[0,1,3]  c27       -1000000
    y[0,1,3]  c28       -1000000
    y[0,1,3]  c37       -1000000
    y[0,1,3]  c38       -1000000
    y[0,1,3]  c43       -1000000
    y[0,1,3]  c44       -1000000
    y[0,1,3]  c45       -1000000
    y[0,1,3]  c46       -1000000
    y[0,1,3]  c111      -140
    y[0,2,0]  c2        1
    y[0,2,0]  c13       -1000000
    y[0,2,0]  c53       -1000000
    y[0,2,0]  c54       -1000000
    y[0,2,0]  c55       -1000000
    y[0,2,0]  c56       -1000000
    y[0,2,0]  c92       -480
    y[0,2,0]  c112      -117
    y[0,2,1]  c2        1
    y[0,2,1]  c14       -1000000
    y[0,2,1]  c39       -1000000
    y[0,2,1]  c40       -1000000
    y[0,2,1]  c49       -1000000
    y[0,2,1]  c50       -1000000
    y[0,2,1]  c51       -1000000
    y[0,2,1]  c52       -1000000
    y[0,2,1]  c57       -1000000
    y[0,2,1]  c58       -1000000
    y[0,2,1]  c94       -480
    y[0,2,1]  c112      -125
    y[1,0,2]  c3        1
    y[1,0,2]  c15       -1000000
    y[1,0,2]  c59       -1000000
    y[1,0,2]  c60       -1000000
    y[1,0,2]  c61       -1000000
    y[1,0,2]  c62       -1000000
    y[1,0,2]  c65       -1000000
    y[1,0,2]  c66       -1000000
    y[1,0,2]  c67       -1000000
    y[1,0,2]  c68       -1000000
    y[1,0,2]  c75       -1000000
    y[1,0,2]  c76       -1000000
    y[1,0,2]  c117      -65
    y[1,0,4]  c3        1
    y[1,0,4]  c16       -1000000
    y[1,0,4]  c29       -1000000
    y[1,0,4]  c30       -1000000
    y[1,0,4]  c63       -1000000
    y[1,0,4]  c64       -1000000
    y[1,0,4]  c117      -78
    y[1,1,1]  c4        1
    y[1,1,1]  c17       -1000000
    y[1,1,1]  c41       -1000000
    y[1,1,1]  c42       -1000000
    y[1,1,1]  c51       -1000000
    y[1,1,1]  c52       -1000000
    y[1,1,1]  c73       -1000000
    y[1,1,1]  c74       -1000000
    y[1,1,1]  c113      -66
    y[1,1,2]  c4        1
    y[1,1,2]  c18       -1000000
    y[1,1,2]  c59       -1000000
    y[1,1,2]  c60       -1000000
    y[1,1,2]  c67       -1000000
    y[1,1,2]  c68       -1000000
    y[1,1,2]  c69       -1000000
    y[1,1,2]  c70       -1000000
    y[1,1,2]  c71       -1000000
    y[1,1,2]  c72       -1000000
    y[1,1,2]  c77       -1000000
    y[1,1,2]  c78       -1000000
    y[1,1,2]  c113      -55
    y[1,2,0]  c5        1
    y[1,2,0]  c19       -1000000
    y[1,2,0]  c53       -1000000
    y[1,2,0]  c54       -1000000
    y[1,2,0]  c81       -1000000
    y[1,2,0]  c82       -1000000
    y[1,2,0]  c100      -480
    y[1,2,0]  c114      -214
    y[1,2,2]  c5        1
    y[1,2,2]  c20       -1000000
    y[1,2,2]  c61       -1000000
    y[1,2,2]  c62       -1000000
    y[1,2,2]  c69       -1000000
    y[1,2,2]  c70       -1000000
    y[1,2,2]  c75       -1000000
    y[1,2,2]  c76       -1000000
    y[1,2,2]  c77       -1000000
    y[1,2,2]  c78       -1000000
    y[1,2,2]  c79       -1000000
    y[1,2,2]  c80       -1000000
    y[1,2,2]  c102      -480
    y[1,2,2]  c114      -150
    y[2,0,3]  c6        1
    y[2,0,3]  c21       -1000000
    y[2,0,3]  c31       -1000000
    y[2,0,3]  c32       -1000000
    y[2,0,3]  c43       -1000000
    y[2,0,3]  c44       -1000000
    y[2,0,3]  c83       -1000000
    y[2,0,3]  c84       -1000000
    y[2,0,3]  c85       -1000000
    y[2,0,3]  c86       -1000000
    y[2,0,3]  c117      -190
    y[2,0,4]  c6        1
    y[2,0,4]  c22       -1000000
    y[2,0,4]  c33       -1000000
    y[2,0,4]  c34       -1000000
    y[2,0,4]  c63       -1000000
    y[2,0,4]  c64       -1000000
    y[2,0,4]  c117      -100
    y[2,1,2]  c7        1
    y[2,1,2]  c23       -1000000
    y[2,1,2]  c65       -1000000
    y[2,1,2]  c66       -1000000
    y[2,1,2]  c71       -1000000
    y[2,1,2]  c72       -1000000
    y[2,1,2]  c79       -1000000
    y[2,1,2]  c80       -1000000
    y[2,1,2]  c115      -80
    y[2,1,3]  c7        1
    y[2,1,3]  c24       -1000000
    y[2,1,3]  c35       -1000000
    y[2,1,3]  c36       -1000000
    y[2,1,3]  c45       -1000000
    y[2,1,3]  c46       -1000000
    y[2,1,3]  c83       -1000000
    y[2,1,3]  c84       -1000000
    y[2,1,3]  c85       -1000000
    y[2,1,3]  c86       -1000000
    y[2,1,3]  c115      -70
    y[2,2,0]  c8        1
    y[2,2,0]  c25       -1000000
    y[2,2,0]  c55       -1000000
    y[2,2,0]  c56       -1000000
    y[2,2,0]  c81       -1000000
    y[2,2,0]  c82       -1000000
    y[2,2,0]  c108      -480
    y[2,2,0]  c116      -87
    y[2,2,1]  c8        1
    y[2,2,1]  c26       -1000000
    y[2,2,1]  c47       -1000000
    y[2,2,1]  c48       -1000000
    y[2,2,1]  c57       -1000000
    y[2,2,1]  c58       -1000000
    y[2,2,1]  c73       -1000000
    y[2,2,1]  c74       -1000000
    y[2,2,1]  c110      -480
    y[2,2,1]  c116      -62
    x[0,0,0,0]  OBJ       0
    x[0,0,0,1]  c27       -1000000
    x[0,0,0,1]  c28       1000000
    x[0,0,0,2]  OBJ       0
    x[0,0,1,0]  c29       -1000000
    x[0,0,1,0]  c30       1000000
    x[0,0,1,1]  OBJ       0
    x[0,0,1,2]  OBJ       0
    x[0,0,2,0]  c31       -1000000
    x[0,0,2,0]  c32       1000000
    x[0,0,2,0]  c33       -1000000
    x[0,0,2,0]  c34       1000000
    x[0,0,2,1]  c35       -1000000
    x[0,0,2,1]  c36       1000000
    x[0,0,2,2]  OBJ       0
    x[0,1,0,0]  c37       -1000000
    x[0,1,0,0]  c38       1000000
    x[0,1,0,1]  OBJ       0
    x[0,1,0,2]  c39       -1000000
    x[0,1,0,2]  c40       1000000
    x[0,1,1,0]  OBJ       0
    x[0,1,1,1]  c41       -1000000
    x[0,1,1,1]  c42       1000000
    x[0,1,1,2]  OBJ       0
    x[0,1,2,0]  c43       -1000000
    x[0,1,2,0]  c44       1000000
    x[0,1,2,1]  c45       -1000000
    x[0,1,2,1]  c46       1000000
    x[0,1,2,2]  c47       -1000000
    x[0,1,2,2]  c48       1000000
    x[0,2,0,0]  OBJ       0
    x[0,2,0,1]  c49       -1000000
    x[0,2,0,1]  c50       1000000
    x[0,2,0,2]  OBJ       0
    x[0,2,1,0]  OBJ       0
    x[0,2,1,1]  c51       -1000000
    x[0,2,1,1]  c52       1000000
    x[0,2,1,2]  c53       -1000000
    x[0,2,1,2]  c54       1000000
    x[0,2,2,0]  OBJ       0
    x[0,2,2,1]  OBJ       0
    x[0,2,2,2]  c55       -1000000
    x[0,2,2,2]  c56       1000000
    x[0,2,2,2]  c57       -1000000
    x[0,2,2,2]  c58       1000000
    x[1,0,0,0]  OBJ       0
    x[1,0,0,1]  OBJ       0
    x[1,0,0,2]  OBJ       0
    x[1,0,1,0]  OBJ       0
    x[1,0,1,1]  c59       -1000000
    x[1,0,1,1]  c60       1000000
    x[1,0,1,2]  c61       -1000000
    x[1,0,1,2]  c62       1000000
    x[1,0,2,0]  c63       -1000000
    x[1,0,2,0]  c64       1000000
    x[1,0,2,1]  c65       -1000000
    x[1,0,2,1]  c66       1000000
    x[1,0,2,2]  OBJ       0
    x[1,1,0,0]  OBJ       0
    x[1,1,0,1]  OBJ       0
    x[1,1,0,2]  OBJ       0
    x[1,1,1,0]  c67       -1000000
    x[1,1,1,0]  c68       1000000
    x[1,1,1,1]  OBJ       0
    x[1,1,1,2]  c69       -1000000
    x[1,1,1,2]  c70       1000000
    x[1,1,2,0]  OBJ       0
    x[1,1,2,1]  c71       -1000000
    x[1,1,2,1]  c72       1000000
    x[1,1,2,2]  c73       -1000000
    x[1,1,2,2]  c74       1000000
    x[1,2,0,0]  OBJ       0
    x[1,2,0,1]  OBJ       0
    x[1,2,0,2]  OBJ       0
    x[1,2,1,0]  c75       -1000000
    x[1,2,1,0]  c76       1000000
    x[1,2,1,1]  c77       -1000000
    x[1,2,1,1]  c78       1000000
    x[1,2,1,2]  OBJ       0
    x[1,2,2,0]  OBJ       0
    x[1,2,2,1]  c79       -1000000
    x[1,2,2,1]  c80       1000000
    x[1,2,2,2]  c81       -1000000
    x[1,2,2,2]  c82       1000000
    x[2,0,0,0]  OBJ       0
    x[2,0,0,1]  OBJ       0
    x[2,0,0,2]  OBJ       0
    x[2,0,1,0]  OBJ       0
    x[2,0,1,1]  OBJ       0
    x[2,0,1,2]  OBJ       0
    x[2,0,2,0]  OBJ       0
    x[2,0,2,1]  c83       -1000000
    x[2,0,2,1]  c84       1000000
    x[2,0,2,2]  OBJ       0
    x[2,1,0,0]  OBJ       0
    x[2,1,0,1]  OBJ       0
    x[2,1,0,2]  OBJ       0
    x[2,1,1,0]  OBJ       0
    x[2,1,1,1]  OBJ       0
    x[2,1,1,2]  OBJ       0
    x[2,1,2,0]  c85       -1000000
    x[2,1,2,0]  c86       1000000
    x[2,1,2,1]  OBJ       0
    x[2,1,2,2]  OBJ       0
    x[2,2,0,0]  OBJ       0
    x[2,2,0,1]  OBJ       0
    x[2,2,0,2]  OBJ       0
    x[2,2,1,0]  OBJ       0
    x[2,2,1,1]  OBJ       0
    x[2,2,1,2]  OBJ       0
    x[2,2,2,0]  OBJ       0
    x[2,2,2,1]  OBJ       0
    x[2,2,2,2]  OBJ       0
    MARKER    'MARKER'                 'INTEND'
    s[0,0,3]  c9        1
    s[0,0,3]  c27       1
    s[0,0,3]  c28       -1
    s[0,0,3]  c31       1
    s[0,0,3]  c32       -1
    s[0,0,3]  c35       1
    s[0,0,3]  c36       -1
    s[0,0,3]  c37       -1
    s[0,0,3]  c38       1
    s[0,0,3]  c87       1
    s[0,0,3]  c111      1
    s[0,0,3]  c117      -1
    s[0,0,4]  c10       1
    s[0,0,4]  c29       1
    s[0,0,4]  c30       -1
    s[0,0,4]  c33       1
    s[0,0,4]  c34       -1
    s[0,0,4]  c88       1
    s[0,0,4]  c111      1
    s[0,0,4]  c117      -1
    s[0,1,1]  c11       1
    s[0,1,1]  c39       1
    s[0,1,1]  c40       -1
    s[0,1,1]  c41       1
    s[0,1,1]  c42       -1
    s[0,1,1]  c47       1
    s[0,1,1]  c48       -1
    s[0,1,1]  c49       -1
    s[0,1,1]  c50       1
    s[0,1,1]  c89       1
    s[0,1,1]  c111      -1
    s[0,1,1]  c112      1
    s[0,1,3]  c12       1
    s[0,1,3]  c27       -1
    s[0,1,3]  c28       1
    s[0,1,3]  c37       1
    s[0,1,3]  c38       -1
    s[0,1,3]  c43       1
    s[0,1,3]  c44       -1
    s[0,1,3]  c45       1
    s[0,1,3]  c46       -1
    s[0,1,3]  c90       1
    s[0,1,3]  c111      -1
    s[0,1,3]  c112      1
    s[0,2,0]  c13       1
    s[0,2,0]  c53       1
    s[0,2,0]  c54       -1
    s[0,2,0]  c55       1
    s[0,2,0]  c56       -1
    s[0,2,0]  c91       1
    s[0,2,0]  c92       1
    s[0,2,0]  c112      -1
    s[0,2,1]  c14       1
    s[0,2,1]  c39       -1
    s[0,2,1]  c40       1
    s[0,2,1]  c49       1
    s[0,2,1]  c50       -1
    s[0,2,1]  c51       1
    s[0,2,1]  c52       -1
    s[0,2,1]  c57       1
    s[0,2,1]  c58       -1
    s[0,2,1]  c93       1
    s[0,2,1]  c94       1
    s[0,2,1]  c112      -1
    s[1,0,2]  c15       1
    s[1,0,2]  c59       1
    s[1,0,2]  c60       -1
    s[1,0,2]  c61       1
    s[1,0,2]  c62       -1
    s[1,0,2]  c65       1
    s[1,0,2]  c66       -1
    s[1,0,2]  c67       -1
    s[1,0,2]  c68       1
    s[1,0,2]  c75       -1
    s[1,0,2]  c76       1
    s[1,0,2]  c95       1
    s[1,0,2]  c113      1
    s[1,0,2]  c117      -1
    s[1,0,4]  c16       1
    s[1,0,4]  c29       -1
    s[1,0,4]  c30       1
    s[1,0,4]  c63       1
    s[1,0,4]  c64       -1
    s[1,0,4]  c96       1
    s[1,0,4]  c113      1
    s[1,0,4]  c117      -1
    s[1,1,1]  c17       1
    s[1,1,1]  c41       -1
    s[1,1,1]  c42       1
    s[1,1,1]  c51       -1
    s[1,1,1]  c52       1
    s[1,1,1]  c73       1
    s[1,1,1]  c74       -1
    s[1,1,1]  c97       1
    s[1,1,1]  c113      -1
    s[1,1,1]  c114      1
    s[1,1,2]  c18       1
    s[1,1,2]  c59       -1
    s[1,1,2]  c60       1
    s[1,1,2]  c67       1
    s[1,1,2]  c68       -1
    s[1,1,2]  c69       1
    s[1,1,2]  c70       -1
    s[1,1,2]  c71       1
    s[1,1,2]  c72       -1
    s[1,1,2]  c77       -1
    s[1,1,2]  c78       1
    s[1,1,2]  c98       1
    s[1,1,2]  c113      -1
    s[1,1,2]  c114      1
    s[1,2,0]  c19       1
    s[1,2,0]  c53       -1
    s[1,2,0]  c54       1
    s[1,2,0]  c81       1
    s[1,2,0]  c82       -1
    s[1,2,0]  c99       1
    s[1,2,0]  c100      1
    s[1,2,0]  c114      -1
    s[1,2,2]  c20       1
    s[1,2,2]  c61       -1
    s[1,2,2]  c62       1
    s[1,2,2]  c69       -1
    s[1,2,2]  c70       1
    s[1,2,2]  c75       1
    s[1,2,2]  c76       -1
    s[1,2,2]  c77       1
    s[1,2,2]  c78       -1
    s[1,2,2]  c79       1
    s[1,2,2]  c80       -1
    s[1,2,2]  c101      1
    s[1,2,2]  c102      1
    s[1,2,2]  c114      -1
    s[2,0,3]  c21       1
    s[2,0,3]  c31       -1
    s[2,0,3]  c32       1
    s[2,0,3]  c43       -1
    s[2,0,3]  c44       1
    s[2,0,3]  c83       1
    s[2,0,3]  c84       -1
    s[2,0,3]  c85       -1
    s[2,0,3]  c86       1
    s[2,0,3]  c103      1
    s[2,0,3]  c115      1
    s[2,0,3]  c117      -1
    s[2,0,4]  c22       1
    s[2,0,4]  c33       -1
    s[2,0,4]  c34       1
    s[2,0,4]  c63       -1
    s[2,0,4]  c64       1
    s[2,0,4]  c104      1
    s[2,0,4]  c115      1
    s[2,0,4]  c117      -1
    s[2,1,2]  c23       1
    s[2,1,2]  c65       -1
    s[2,1,2]  c66       1
    s[2,1,2]  c71       -1
    s[2,1,2]  c72       1
    s[2,1,2]  c79       -1
    s[2,1,2]  c80       1
    s[2,1,2]  c105      1
    s[2,1,2]  c115      -1
    s[2,1,2]  c116      1
    s[2,1,3]  c24       1
    s[2,1,3]  c35       -1
    s[2,1,3]  c36       1
    s[2,1,3]  c45       -1
    s[2,1,3]  c46       1
    s[2,1,3]  c83       -1
    s[2,1,3]  c84       1
    s[2,1,3]  c85       1
    s[2,1,3]  c86       -1
    s[2,1,3]  c106      1
    s[2,1,3]  c115      -1
    s[2,1,3]  c116      1
    s[2,2,0]  c25       1
    s[2,2,0]  c55       -1
    s[2,2,0]  c56       1
    s[2,2,0]  c81       -1
    s[2,2,0]  c82       1
    s[2,2,0]  c107      1
    s[2,2,0]  c108      1
    s[2,2,0]  c116      -1
    s[2,2,1]  c26       1
    s[2,2,1]  c47       -1
    s[2,2,1]  c48       1
    s[2,2,1]  c57       -1
    s[2,2,1]  c58       1
    s[2,2,1]  c73       -1
    s[2,2,1]  c74       1
    s[2,2,1]  c109      1
    s[2,2,1]  c110      1
    s[2,2,1]  c116      -1
    MARKER    'MARKER'                 'INTORG'
    Z_FO      OBJ       1
    Z_FO      c117      1
    MARKER    'MARKER'                 'INTEND'
RHS
    RHS1      c0        1
    RHS1      c1        1
    RHS1      c2        1
    RHS1      c3        1
    RHS1      c4        1
    RHS1      c5        1
    RHS1      c6        1
    RHS1      c7        1
    RHS1      c8        1
    RHS1      c27       -2999667
    RHS1      c28       -1999637
    RHS1      c29       -2999544
    RHS1      c30       -1999630
    RHS1      c31       -2999596
    RHS1      c32       -1999592
    RHS1      c33       -2999639
    RHS1      c34       -1999140
    RHS1      c35       -2999414
    RHS1      c36       -1999538
    RHS1      c37       -2999637
    RHS1      c38       -1999667
    RHS1      c39       -2999759
    RHS1      c40       -1999237
    RHS1      c41       -2999858
    RHS1      c42       -1999669
    RHS1      c43       -2999138
    RHS1      c44       -1999666
    RHS1      c45       -2999265
    RHS1      c46       -1999362
    RHS1      c47       -2999626
    RHS1      c48       -1999663
    RHS1      c49       -2999237
    RHS1      c50       -1999759
    RHS1      c51       -2999289
    RHS1      c52       -1999231
    RHS1      c53       -2999585
    RHS1      c54       -1999659
    RHS1      c55       -2999789
    RHS1      c56       -1999503
    RHS1      c57       -2999883
    RHS1      c58       -1999759
    RHS1      c59       -2999615
    RHS1      c60       -1999115
    RHS1      c61       -2998825
    RHS1      c62       -1999794
    RHS1      c63       -2999648
    RHS1      c64       -1999670
    RHS1      c65       -2999765
    RHS1      c66       -1999559
    RHS1      c67       -2999115
    RHS1      c68       -1999615
    RHS1      c69       -2999637
    RHS1      c70       -1999601
    RHS1      c71       -2999105
    RHS1      c72       -1999390
    RHS1      c73       -2999683
    RHS1      c74       -1999694
    RHS1      c75       -2999794
    RHS1      c76       -1998825
    RHS1      c77       -2999601
    RHS1      c78       -1999637
    RHS1      c79       -2999284
    RHS1      c80       -1999770
    RHS1      c81       -2999349
    RHS1      c82       -1998721
    RHS1      c83       -2999805
    RHS1      c84       -1999638
    RHS1      c85       -2999638
    RHS1      c86       -1999805
BOUNDS
 BV BND1      y[0,0,3]
 BV BND1      y[0,0,4]
 BV BND1      y[0,1,1]
 BV BND1      y[0,1,3]
 BV BND1      y[0,2,0]
 BV BND1      y[0,2,1]
 BV BND1      y[1,0,2]
 BV BND1      y[1,0,4]
 BV BND1      y[1,1,1]
 BV BND1      y[1,1,2]
 BV BND1      y[1,2,0]
 BV BND1      y[1,2,2]
 BV BND1      y[2,0,3]
 BV BND1      y[2,0,4]
 BV BND1      y[2,1,2]
 BV BND1      y[2,1,3]
 BV BND1      y[2,2,0]
 BV BND1      y[2,2,1]
 BV BND1      x[0,0,0,0]
 BV BND1      x[0,0,0,1]
 BV BND1      x[0,0,0,2]
 BV BND1      x[0,0,1,0]
 BV BND1      x[0,0,1,1]
 BV BND1      x[0,0,1,2]
 BV BND1      x[0,0,2,0]
 BV BND1      x[0,0,2,1]
 BV BND1      x[0,0,2,2]
 BV BND1      x[0,1,0,0]
 BV BND1      x[0,1,0,1]
 BV BND1      x[0,1,0,2]
 BV BND1      x[0,1,1,0]
 BV BND1      x[0,1,1,1]
 BV BND1      x[0,1,1,2]
 BV BND1      x[0,1,2,0]
 BV BND1      x[0,1,2,1]
 BV BND1      x[0,1,2,2]
 BV BND1      x[0,2,0,0]
 BV BND1      x[0,2,0,1]
 BV BND1      x[0,2,0,2]
 BV BND1      x[0,2,1,0]
 BV BND1      x[0,2,1,1]
 BV BND1      x[0,2,1,2]
 BV BND1      x[0,2,2,0]
 BV BND1      x[0,2,2,1]
 BV BND1      x[0,2,2,2]
 BV BND1      x[1,0,0,0]
 BV BND1      x[1,0,0,1]
 BV BND1      x[1,0,0,2]
 BV BND1      x[1,0,1,0]
 BV BND1      x[1,0,1,1]
 BV BND1      x[1,0,1,2]
 BV BND1      x[1,0,2,0]
 BV BND1      x[1,0,2,1]
 BV BND1      x[1,0,2,2]
 BV BND1      x[1,1,0,0]
 BV BND1      x[1,1,0,1]
 BV BND1      x[1,1,0,2]
 BV BND1      x[1,1,1,0]
 BV BND1      x[1,1,1,1]
 BV BND1      x[1,1,1,2]
 BV BND1      x[1,1,2,0]
 BV BND1      x[1,1,2,1]
 BV BND1      x[1,1,2,2]
 BV BND1      x[1,2,0,0]
 BV BND1      x[1,2,0,1]
 BV BND1      x[1,2,0,2]
 BV BND1      x[1,2,1,0]
 BV BND1      x[1,2,1,1]
 BV BND1      x[1,2,1,2]
 BV BND1      x[1,2,2,0]
 BV BND1      x[1,2,2,1]
 BV BND1      x[1,2,2,2]
 BV BND1      x[2,0,0,0]
 BV BND1      x[2,0,0,1]
 BV BND1      x[2,0,0,2]
 BV BND1      x[2,0,1,0]
 BV BND1      x[2,0,1,1]
 BV BND1      x[2,0,1,2]
 BV BND1      x[2,0,2,0]
 BV BND1      x[2,0,2,1]
 BV BND1      x[2,0,2,2]
 BV BND1      x[2,1,0,0]
 BV BND1      x[2,1,0,1]
 BV BND1      x[2,1,0,2]
 BV BND1      x[2,1,1,0]
 BV BND1      x[2,1,1,1]
 BV BND1      x[2,1,1,2]
 BV BND1      x[2,1,2,0]
 BV BND1      x[2,1,2,1]
 BV BND1      x[2,1,2,2]
 BV BND1      x[2,2,0,0]
 BV BND1      x[2,2,0,1]
 BV BND1      x[2,2,0,2]
 BV BND1      x[2,2,1,0]
 BV BND1      x[2,2,1,1]
 BV BND1      x[2,2,1,2]
 BV BND1      x[2,2,2,0]
 BV BND1      x[2,2,2,1]
 BV BND1      x[2,2,2,2]
 LI BND1      Z_FO      0
ENDATA
